0 0 0 0
0 1 0 0
0 2 1 0
0 3 1 0
0 4 1 12
0 5 2 4
0 6 0 2
0 7 0 4
0 8 2 4
0 9 0 7
0 10 0 10
0 11 1 10
0 12 0 10
0 13 1 12
0 14 2 12
0 15 1 18
0 16 1 19
0 17 0 19
0 18 0 21
0 19 2 25
0 20 1 22
0 21 0 27
0 22 2 24
0 23 2 19
0 24 0 27
0 25 1 14
0 26 0 33
0 27 0 30
0 28 1 34
0 29 0 34
0 30 1 32
0 31 0 39
